     Program PWSCF v.6.4.1 starts on 31Mar2023 at 14:58:11

     R & G space division:  proc/nbgrp/npool/nimage =      24
     Waiting for input...
     Reading input from standard input
Warning: card &CELL ignored
Warning: card CELL_DYNAMICS='BFGS', ignored
Warning: card PRESS_CONV_THR =  2.00000E-01 ignored
Warning: card / ignored

     Current dimensions of program PWSCF are:
     Max number of different atomic species (ntypx) = 10
     Max number of k-points (npk) =  40000
     Max angular momentum in pseudopotentials (lmaxx) =  3
               file Zn.pbe-dnl-rrkjus_psl.1.0.0.UPF: wavefunction(s)  3D renormalized

     Found symmetry operation: I + (  0.0000  0.5000  0.5000)
     This is a supercell, fractional translations are disabled

     Title:
     Optimization of ZnS unit cell

     bravais-lattice index     =            1
     lattice parameter (alat)  =      10.2835  a.u.
     unit-cell volume          =    1087.4757 (a.u.)^3
     number of atoms/cell      =            8
     number of atomic types    =            2
     number of electrons       =        72.00
     number of Kohn-Sham states=           36
     kinetic-energy cutoff     =      44.0000  Ry
     charge density cutoff     =     473.0000  Ry
     convergence threshold     =      1.0E-06
     mixing beta               =       0.7000
     number of iterations used =            8  plain     mixing
     Exchange-correlation      = PBE ( 1  4  3  4 0 0)
     nstep                     =          100

     celldm(1)=  10.283474  celldm(2)=   0.000000  celldm(3)=   0.000000
     celldm(4)=   0.000000  celldm(5)=   0.000000  celldm(6)=   0.000000

     crystal axes: (cart. coord. in units of alat)
               a(1) = (   1.000000   0.000000   0.000000 )
               a(2) = (   0.000000   1.000000   0.000000 )
               a(3) = (   0.000000   0.000000   1.000000 )

     reciprocal axes: (cart. coord. in units 2 pi/alat)
               b(1) = (  1.000000  0.000000  0.000000 )
               b(2) = (  0.000000  1.000000  0.000000 )
               b(3) = (  0.000000  0.000000  1.000000 )

     PseudoPot. # 1 for Zn read from file:
     /scratch/22gg91j21/spha/pseudo/Zn.pbe-dnl-rrkjus_psl.1.0.0.UPF
     MD5 check sum: 7f56cabf9682ed8c977c2f7d0c5985c5
     Pseudo is Ultrasoft + core correction, Zval = 12.0
     Generated using "atomic" code by A. Dal Corso v.6.2.2
     Using radial grid of 1201 points,  6 beta functions with:
                l(1) =   0
                l(2) =   0
                l(3) =   1
                l(4) =   1
                l(5) =   2
                l(6) =   2
     Q(r) pseudized with 0 coefficients

     PseudoPot. # 2 for S  read from file:
     /scratch/22gg91j21/spha/pseudo/S.pbe-nl-rrkjus_psl.1.0.0.UPF
     MD5 check sum: 816524f9d2370a67bf2b5249ef8e004b
     Pseudo is Ultrasoft + core correction, Zval =  6.0
     Generated using "atomic" code by A. Dal Corso v.6.3
     Using radial grid of 1151 points,  4 beta functions with:
                l(1) =   0
                l(2) =   0
                l(3) =   1
                l(4) =   1
     Q(r) pseudized with 0 coefficients

     atomic species   valence    mass     pseudopotential
        Zn            12.00    65.38000     Zn( 1.00)
        S              6.00    32.06500     S ( 1.00)

     No symmetry found

   Cartesian axes

     site n.     atom                  positions (alat units)
         1           Zn  tau(   1) = (   0.0000000   0.0000000   0.0000000  )
         2           Zn  tau(   2) = (   0.0000000   0.4999998   0.4999998  )
         3           Zn  tau(   3) = (   0.4999998   0.0000000   0.4999998  )
         4           Zn  tau(   4) = (   0.4999998   0.4999998   0.0000000  )
         5           S   tau(   5) = (   0.2500002   0.2500002   0.2500002  )
         6           S   tau(   6) = (   0.2500002   0.7499994   0.7499994  )
         7           S   tau(   7) = (   0.7499994   0.2500002   0.7499994  )
         8           S   tau(   8) = (   0.7499994   0.7499994   0.2500002  )

     number of k points=   260

     Number of k-points >= 100: set verbosity='high' to print them.

     Initial potential from superposition of free atoms

     starting charge   71.98497, renormalised to   72.00000
     Starting wfcs are   52 randomized atomic wfcs

     Self-consistent Calculation

     iteration #  1     ecut=    44.00 Ry     beta= 0.70
     Davidson diagonalization with overlap
     ethr =  1.00E-02,  avg # of iterations =  2.0

     Threshold (ethr) on eigenvalues was too large:
     Diagonalizing with lowered threshold

     Davidson diagonalization with overlap
     ethr =  3.23E-04,  avg # of iterations =  2.9

     total energy              =    -677.51957414 Ry
     Harris-Foulkes estimate   =    -677.64332603 Ry
     estimated scf accuracy    <       0.23253735 Ry

[...]

     total energy              =    -677.58264900 Ry
     Harris-Foulkes estimate   =    -677.58269631 Ry
     estimated scf accuracy    <       0.00009237 Ry

     iteration #  7     ecut=    44.00 Ry     beta= 0.70
     Davidson diagonalization with overlap
     ethr =  9.24E-08,  avg # of iterations =  3.0

     End of self-consistent calculation

     Number of k-points >= 100: set verbosity='high' to print the bands.

     highest occupied level (ev):     5.5510

!    total energy              =    -677.58266357 Ry
     Harris-Foulkes estimate   =    -677.58266410 Ry
     estimated scf accuracy    <       0.00000064 Ry

     The total energy is the sum of the following terms:

     one-electron contribution =    -347.65030160 Ry
     hartree contribution      =     245.40511554 Ry
     xc contribution           =    -209.40901231 Ry
     ewald contribution        =    -365.92846519 Ry

     convergence has been achieved in   7 iterations

     Forces acting on atoms (cartesian axes, Ry/au):

     atom    1 type  1   force =     0.00000782   -0.00001134    0.00000834
     atom    2 type  1   force =     0.00000637    0.00000795   -0.00000752
     atom    3 type  1   force =    -0.00000830   -0.00001138   -0.00000707
     atom    4 type  1   force =    -0.00000933    0.00001376    0.00000795
     atom    5 type  2   force =     0.00000143    0.00000159   -0.00000101
     atom    6 type  2   force =     0.00000076   -0.00000123   -0.00000003
     atom    7 type  2   force =     0.00000048    0.00000187   -0.00000006
     atom    8 type  2   force =     0.00000077   -0.00000122   -0.00000060

     Total force =     0.000032     Total SCF correction =     0.000075
     SCF correction compared to forces is large: reduce conv_thr to get better values

     Computing stress (Cartesian axis) and pressure

          total   stress  (Ry/bohr**3)                   (kbar)     P=    0.45
   0.00000303   0.00000000   0.00000000          0.45      0.00      0.00
   0.00000000   0.00000303  -0.00000000          0.00      0.45     -0.00
   0.00000000  -0.00000000   0.00000303          0.00     -0.00      0.45

     BFGS Geometry Optimization

     bfgs converged in   1 scf cycles and   0 bfgs steps
     (criteria: energy <  1.0E-04 Ry, force <  1.0E-03 Ry/Bohr)

     End of BFGS Geometry Optimization

     Final energy   =    -677.5826635670 Ry
Begin final coordinates

ATOMIC_POSITIONS (angstrom)
Zn       0.000000000   0.000000000   0.000000000
Zn       0.000000000   2.720889000   2.720889000
Zn       2.720889000   0.000000000   2.720889000
Zn       2.720889000   2.720889000   0.000000000
S        1.360446000   1.360446000   1.360446000
S        1.360446000   4.081332000   4.081332000
S        4.081332000   1.360446000   4.081332000
S        4.081332000   4.081332000   1.360446000
End final coordinates

     Writing output data file ZnS_relax.save/

     General routines

     Parallel routines

   This run was terminated on:  15: 1:32  31Mar2023

   JOB DONE.